language Essence 1.3

letting bot_end be
        [211, 170, 95, 199, 93, 88, 75, 17, 90, 89, 167, 120, 8, 202, 82, 69, 157, 145, 117, 47, 91; int(1..21)]
letting bot_start be
        [62, 92, 151, 196, 140, 70, 116, 9, 142, 213, 195, 209, 134, 128, 104, 99, 194, 232, 43, 72, 148; int(1..21)]
letting bots be 21
letting buffer_col be 2
letting buffer_row be 2
letting corridor_size be 1
letting n_shelves_col be 3
letting n_shelves_row be 7
letting shelf_col_size be 2
letting shelf_row_size be 1
